

units           lj
atom_style      full
dimension       3
boundary        p p p


read_data       packed.data

bond_style      fene
bond_coeff      * 30.0 1.5 1.0 1.0
special_bonds   fene

variable        runtime equal 1000000
variable        Temp equal 1.0
variable        velSeed equal 926458
variable        dt equal 0.005
variable        Tdamping equal 100*${dt}

timestep        ${dt}

velocity        all create ${Temp} ${velSeed}


minimize        0.0 1.0e-8 1000 100000


thermo_style    custom step time temp vol density press etotal pe ke epair ebond eangle
thermo          10000
thermo_modify   line yaml format none

# The last coefficient (r_cut_ij) is optional. If not specified, the global LJ cutoff (r_cut_global) specified in the pair_style command is used.
# pair_style      lj/cut <r_cut_global>
# pair_coeff      <type_i>  <type_j>  <eps_ij>  <sigma_ij>  [<r_cut_ij>]

pair_style      lj/cut ${CUTOFF}
pair_coeff      * * ${EPSILONLJ} 1.0
pair_modify     shift yes

fix             lng all langevin ${Temp} ${Temp} ${Tdamping} ${velSeed}
fix             nve1 all nve

dump            lindump all custom 10000 traj_lin.lammpstrj id type xu yu zu vx vy vz

run             1000000

write_data      final.data

