

units           real
boundary        p p p

pair_style      lj/charmmfsw/coul/long 10 12
pair_modify     mix arithmetic
kspace_style    ewald 1.0e-4

atom_style      full
bond_style      harmonic
angle_style     charmm
dihedral_style  charmmfsw
special_bonds   charmm
improper_style  harmonic
timestep        1

read_data       PLA_CHARMM.data

neighbor        2 bin
neigh_modify    delay 5 every 1

variable 		TF equal 300

thermo          100
thermo_style	custom step temp ebond eangle edihed ecoul etotal vol density spcpu


#######  energy minimization  #######
velocity        all create ${TF} 500980 rot yes
velocity 	      all zero linear
minimize 	      1.0e-8 1.0e-8 50000 50000

#######  equilibration  ##########
fix     	      59 all nvt  temp ${TF} ${TF} 50
run             100000
unfix           59

write_data      equilibrated.data
write_restart   equilibrated.restart

#######  production run  #########
dump            55 all dcd 100 unwrapped_traj.dcd
dump_modify     55 unwrap yes

fix     	      57 all nvt  temp ${TF} ${TF} 50
run             100000
unfix           57

print "ALL DONE"

